
(set-logic ALL) 

(declare-datatype MyList ((Nil) (Cons (head Real) (tail MyList)) )) 
(declare-fun l0 () MyList) 
(declare-fun l1 () MyList) 
(declare-fun l2 () MyList) 
(declare-fun l3 () MyList) 
(declare-fun i0 () Real) 
(declare-fun i1 () Real) 
(assert (is-Cons Nil) )
(assert (or (= l1 Nil) (= l1 Nil) (= l0 Nil)) )
(assert (not (= l0 l1)) )
(assert (is-Cons Nil) )
(assert (or (is-Nil l0) (is-Nil l3) (= l0 Nil)) )
(assert (is-Nil l1) )
(assert (is-Cons Nil) )
(assert (not (= l0 Nil)) )
(check-sat)
